9687 8423 3 5 11 14 15 16 19 20 21 22 24 25 26 29 33 34 35 39 41 42 45 49 51 52 53 57 58 59 61 64 66 67 68 69 70 74 78 79 83 85 87 88 91 92 96 99 101 103 104 107 110 111 113 114 117 120 123 124 135 136 140 145 146 149 150 155 156 157 159 161 166 168 174 175 176 178 182 185 187 188 192 196 197 198 200 201 206 210 213 221 225 229 234 235 238 241 245 246 248 249 250 251 252 256 258 259 260 261 263 264 265 268 269 272 275 278 280 282 287 288 290 296 297 298 303 306 307 310 311 312 317 319 329 331 332 333 336 337 338 340 341 342 348 349 351 353 361 364 365 371 373 375 377 378 379 387 388 391 392 393 396 398 400 401 405 406 410 413 417 422 424 428 429 434 436 445 446 450 451 460 465 468 470 471 481 483 486 487 490 491 492 493 494 496 